Minimize
 obj: 2 y(5) - 7 y(8) + 174 x(0) - 10 y(4) + 163 x(1) - 7 y(2) - 195 x(2)
      + 8 y(0) - 9 y(1) - 49 x(3) - 178 x(4) + 4 y(7) + 160 x(5) + 153 x(6)
      + 76 x(7) - 114 x(8) + 163 x(9) - 10 y(3) 
Subject To
 c1:  y(5) + 16 y(6) + 17 y(8) + 11 x(0) <= 52
 c2:  14 y(5) + 3 y(4) + 5 x(1) <= 85
 c3:  15 y(6) + 16 y(4) + 18 y(2) + 5 x(2) <= 78
 c4:  20 y(8) + 6 y(0) + 9 y(1) + 8 x(3) <= 70
 c5:  19 y(8) + 17 y(4) + 19 x(4) <= 68
 c6:  8 y(5) + 5 y(8) + 6 y(4) + 17 y(1) + 7 y(7) + 9 x(5) <= 77
 c7:  14 y(5) - y(2) - y(1) + 16 y(7) + 16 y(9) + 12 x(6) <= 52
 c8:  20 y(6) + 15 y(4) + 16 y(0) + 16 y(9) + 6 x(7) <= 74
 c9:  4 y(5) + 16 y(6) + 16 y(0) + 16 y(1) + 3 x(8) <= 75
 c10: 13 y(5) + 6 y(4) + 12 y(9) + 2 x(9) <= 75
 c11: 9 y(5) + 8 y(7) + 9 y(9) + 11 y(3) <= 66
 c12: 6 y(4) + y(2) + y(7) + 13 y(9) <= 98
 c13: 18 y(6) + 13 y(8) + 14 y(4) + 6 y(2) + 10 y(0) <= 69
 c14: 4 y(5) + 11 y(8) + 11 y(4) + 3 y(2) + 4 y(0) <= 71
 c15: 12 y(5) + 15 y(6) - y(8) + 5 y(3) <= 77
 c16: 8 y(5) + 14 y(6) + 9 y(8) + 9 y(4) <= 98
 c17: 9 y(8) + 5 y(2) + 20 y(1) + 19 y(7) + 15 y(9) <= 81
 c18: 15 y(5) + 16 y(8) + 10 y(0) + 18 y(9) + 17 y(3) <= 78
 c19: 13 y(6) + 3 y(2) + 15 y(0) + 13 y(7) + 11 y(3) <= 100
 c20: x(0) + x(1) + x(2) + x(3) + x(4) + x(5) + x(6) + x(7) + x(8) + x(9) <= 3
 c21: - 5 y(5) + 3 y(6) + 5 y(8) - 96 x(0) - 4 y(4) + 165 x(1) + 10 y(2)
      + 67 x(2) - 8 y(0) + 10 y(1) - 176 x(3) + 49 x(4) - 8 y(7) + 85 x(5)
      - 9 y(9) + 67 x(6) - 108 x(7) + 47 x(8) - 156 x(9) + 7 y(3) = 0
Bounds
 0 <= x(0) <= 1
 0 <= x(1) <= 1
 0 <= x(2) <= 1
 0 <= x(3) <= 1
 0 <= x(4) <= 1
 0 <= x(5) <= 1
 0 <= x(6) <= 1
 0 <= x(7) <= 1
 0 <= x(8) <= 1
 0 <= x(9) <= 1
Binaries
 x(0)  x(1)  x(2)  x(3)  x(4)  x(5)  x(6)  x(7)  x(8)  x(9) 
End
